10
1 9
2 8
3 5
4 5
5 6
6 10
7 7
8 2
9 8
10 7
43
0 1 45
1 0 45
0 2 39
2 0 39
0 3 59
3 0 59
0 4 12
4 0 12
0 5 39
5 0 39
0 6 4
6 0 4
0 7 35
7 0 35
0 8 33
8 0 33
0 9 46
9 0 46
0 10 1
10 0 1
1 2 55
1 3 68
1 4 26
1 7 97
1 8 42
1 9 87
2 4 94
2 5 4
2 6 46
2 7 51
2 9 24
3 6 74
3 7 30
3 8 73
4 5 53
4 9 58
4 10 69
5 6 62
5 8 37
5 10 82
6 7 84
6 8 26
7 10 92